(set-info :smt-lib-version 2.6)
(set-logic QF_UFIDL)
(set-info :source |
UCLID benchmark suite.  See UCLID project: http://www.cs.cmu.edu/~uclid

This benchmark was automatically translated into SMT-LIB format from
CVC format using CVC Lite
|)
(set-info :category "industrial")
(set-info :status unsat)
(declare-fun BmainB_46_init_const_N1_c () Int)
(declare-fun BB_p0 () Bool)
(declare-fun BmainB_46_init_const_N1_643_c () Int)
(declare-fun BmainB_46_init_const_H_zN1_693_c () Int)
(declare-fun BmainB_46_init_const_T1_644_c () Int)
(declare-fun BmainB_46_iBOT () Int)
(declare-fun BmainB_46_init_const_zN1_693_c () Int)
(declare-fun BmainB_46_init_const_T1_c () Int)
(declare-fun BmainB_46_sqrt (Int) Int)
(declare-fun BmainB_46_f_mul_1 (Int Int) Int)
(declare-fun BmainB_46_f_minus_1 (Int Int) Int)
(declare-fun BmainB_46_f_minus_2 (Int Int) Int)
(declare-fun BmainB_46_f_minus_3 (Int Int) Int)
(declare-fun BmainB_46_f_minus_4 (Int Int) Int)
(declare-fun BmainB_46_f_minus_5 (Int Int) Int)
(declare-fun BmainB_46_f_lt_1 (Int Int) Bool)
(declare-fun BmainB_46_f_lt_2 (Int Int) Bool)
(declare-fun BmainB_46_f_lt_3 (Int Int) Bool)
(declare-fun BmainB_46_f_lt_4 (Int Int) Bool)
(declare-fun BmainB_46_f_ge_1 (Int Int) Bool)
(declare-fun BmainB_46_f_lt_5 (Int Int) Bool)
(declare-fun BmainB_46_f_ge_2 (Int Int) Bool)
(declare-fun BmainB_46_f_ge_3 (Int Int) Bool)
(declare-fun BmainB_46_f_ge_4 (Int Int) Bool)
(declare-fun BmainB_46_f_ge_5 (Int Int) Bool)
(declare-fun BmainB_46_f_ge_6 (Int Int) Bool)
(declare-fun BmainB_46_f_div_2 (Int Int) Int)
(declare-fun BmainB_46_f_div_1 (Int Int) Int)
(declare-fun BmainB_46_f_plus_1 (Int Int) Int)
(assert (let ((?v_4 (+ 1 BmainB_46_iBOT))) (let ((?v_8 (+ 1 ?v_4))) (let ((?v_0 (+ 1 ?v_8))) (let ((?v_1 (+ 1 ?v_0))) (let ((?v_2 (+ 1 ?v_1))) (let ((?v_25 (+ 1 ?v_2))) (let ((?v_9 (+ 1 ?v_25))) (let ((?v_36 (BmainB_46_f_minus_1 ?v_9 ?v_0)) (?v_3 (BmainB_46_f_plus_1 ?v_1 BmainB_46_init_const_T1_644_c)) (?v_5 (BmainB_46_f_div_1 ?v_2 ?v_1))) (let ((?v_6 (BmainB_46_f_div_2 ?v_2 ?v_3))) (let ((?v_7 (BmainB_46_sqrt (ite (= ?v_3 ?v_4) ?v_5 ?v_6)))) (let ((?v_27 (BmainB_46_f_mul_1 BmainB_46_init_const_N1_643_c ?v_7)) (?v_24 (ite BB_p0 ?v_4 ?v_8))) (let ((?v_12 (= ?v_24 ?v_8))) (let ((?v_10 (BmainB_46_f_minus_2 BmainB_46_init_const_N1_643_c (ite ?v_12 BmainB_46_init_const_N1_643_c BmainB_46_init_const_H_zN1_693_c))) (?v_33 (BmainB_46_f_minus_3 BmainB_46_init_const_N1_643_c ?v_0)) (?v_32 (+ 1 ?v_9))) (let ((?v_11 (+ 1 ?v_32))) (let ((?v_31 (+ 1 ?v_11))) (let ((?v_30 (BmainB_46_f_minus_4 ?v_31 ?v_0)) (?v_26 (BmainB_46_f_minus_3 ?v_10 ?v_0)) (?v_14 (BmainB_46_f_plus_1 ?v_1 BmainB_46_init_const_T1_c))) (let ((?v_15 (not (= ?v_14 BmainB_46_iBOT))) (?v_28 (BmainB_46_f_minus_5 ?v_11 ?v_0)) (?v_95 (BmainB_46_f_minus_3 BmainB_46_init_const_N1_c ?v_0)) (?v_13 (BmainB_46_f_minus_2 BmainB_46_init_const_N1_c (ite ?v_12 BmainB_46_init_const_N1_c BmainB_46_init_const_H_zN1_693_c))) (?v_23 (not (= BmainB_46_init_const_N1_c BmainB_46_iBOT)))) (let ((?v_70 (ite ?v_23 ?v_13 BmainB_46_iBOT))) (let ((?v_59 (BmainB_46_f_minus_3 ?v_70 ?v_0)) (?v_21 (BmainB_46_f_div_2 ?v_2 ?v_14)) (?v_16 (ite ?v_15 (ite (= ?v_14 ?v_4) ?v_8 ?v_4) BmainB_46_iBOT))) (let ((?v_19 (= ?v_16 ?v_8)) (?v_17 (not (= ?v_16 BmainB_46_iBOT))) (?v_39 (not (= ?v_8 BmainB_46_iBOT)))) (let ((?v_18 (or ?v_17 ?v_39))) (let ((?v_20 (ite ?v_18 (ite (= (ite ?v_17 ?v_16 BmainB_46_iBOT) ?v_8) ?v_8 (ite ?v_18 ?v_4 BmainB_46_iBOT)) BmainB_46_iBOT))) (let ((?v_22 (BmainB_46_sqrt (ite (and ?v_19 (= ?v_20 ?v_8)) (ite ?v_19 ?v_5 BmainB_46_iBOT) (ite (= ?v_20 ?v_4) ?v_21 BmainB_46_iBOT))))) (let ((?v_72 (BmainB_46_f_mul_1 BmainB_46_init_const_N1_c ?v_22)) (?v_48 (= ?v_24 ?v_4)) (?v_29 (not ?v_12)) (?v_34 (not (= ?v_24 BmainB_46_iBOT))) (?v_35 (and ?v_12 ?v_23))) (let ((?v_37 (or ?v_35 ?v_34))) (let ((?v_38 (ite ?v_37 (ite (= (ite ?v_35 (ite (BmainB_46_f_lt_1 BmainB_46_init_const_N1_c ?v_36) ?v_8 ?v_4) BmainB_46_iBOT) ?v_8) ?v_8 (ite ?v_37 ?v_4 BmainB_46_iBOT)) BmainB_46_iBOT))) (let ((?v_44 (and ?v_12 (= ?v_38 ?v_8))) (?v_45 (and ?v_12 (= ?v_38 ?v_4)))) (let ((?v_43 (or ?v_44 ?v_45)) (?v_40 (or ?v_34 ?v_39))) (let ((?v_41 (ite ?v_40 (ite (= (ite ?v_34 ?v_24 BmainB_46_iBOT) ?v_8) ?v_8 (ite ?v_40 ?v_4 BmainB_46_iBOT)) BmainB_46_iBOT))) (let ((?v_62 (= ?v_41 ?v_8))) (let ((?v_42 (and ?v_43 ?v_62)) (?v_63 (= ?v_41 ?v_4))) (let ((?v_46 (and ?v_23 ?v_63)) (?v_67 (ite ?v_12 (ite ?v_12 ?v_4 BmainB_46_iBOT) BmainB_46_iBOT)) (?v_69 (ite ?v_12 (ite ?v_12 ?v_8 BmainB_46_iBOT) BmainB_46_iBOT))) (let ((?v_47 (ite (or ?v_42 ?v_46) (ite ?v_42 (ite ?v_43 (ite ?v_44 ?v_67 (ite ?v_45 ?v_69 BmainB_46_iBOT)) BmainB_46_iBOT) (ite ?v_46 (ite ?v_23 (ite (BmainB_46_f_ge_1 BmainB_46_init_const_N1_c ?v_9) ?v_8 ?v_4) BmainB_46_iBOT) BmainB_46_iBOT)) BmainB_46_iBOT)) (?v_53 (ite ?v_34 (ite ?v_48 ?v_8 ?v_4) BmainB_46_iBOT))) (let ((?v_49 (= ?v_53 ?v_8))) (let ((?v_54 (ite (and (and ?v_12 ?v_49) ?v_49) ?v_8 ?v_4))) (let ((?v_51 (= (ite ?v_34 (ite (and ?v_12 (= (ite ?v_34 ?v_54 BmainB_46_iBOT) ?v_8)) ?v_8 ?v_4) BmainB_46_iBOT) ?v_8))) (let ((?v_50 (ite ?v_34 (ite (or ?v_12 ?v_51) ?v_8 ?v_4) BmainB_46_iBOT))) (let ((?v_52 (ite (not (= ?v_50 BmainB_46_iBOT)) (ite (or (= ?v_50 ?v_8) ?v_51) ?v_8 ?v_4) BmainB_46_iBOT))) (let ((?v_55 (ite (not (= ?v_52 BmainB_46_iBOT)) (ite (or (= ?v_52 ?v_8) (= (ite ?v_34 (ite (and ?v_12 (= (ite (not (= ?v_53 BmainB_46_iBOT)) ?v_54 BmainB_46_iBOT) ?v_8)) ?v_8 ?v_4) BmainB_46_iBOT) ?v_8)) ?v_8 ?v_4) BmainB_46_iBOT))) (let ((?v_93 (ite (not (= ?v_55 BmainB_46_iBOT)) (ite (= ?v_55 ?v_8) ?v_52 ?v_24) BmainB_46_iBOT))) (let ((?v_56 (ite ?v_34 (ite (and ?v_12 (or (and ?v_12 (= (ite (not (= ?v_47 BmainB_46_iBOT)) (ite (= ?v_47 ?v_4) ?v_8 ?v_4) BmainB_46_iBOT) ?v_8)) (= ?v_93 ?v_8))) ?v_8 ?v_4) BmainB_46_iBOT))) (let ((?v_57 (ite (not (= ?v_56 BmainB_46_iBOT)) (ite (or (= ?v_56 ?v_8) (= (ite ?v_34 (ite (and ?v_12 (BmainB_46_f_ge_2 ?v_4 BmainB_46_init_const_N1_c)) ?v_8 ?v_4) BmainB_46_iBOT) ?v_8)) ?v_8 ?v_4) BmainB_46_iBOT))) (let ((?v_58 (ite (not (= ?v_57 BmainB_46_iBOT)) (ite (= ?v_57 ?v_8) ?v_56 ?v_24) BmainB_46_iBOT)) (?v_92 (= (ite ?v_34 (ite ?v_29 ?v_8 ?v_4) BmainB_46_iBOT) ?v_8)) (?v_60 (or ?v_12 ?v_34))) (let ((?v_96 (ite ?v_60 ?v_4 BmainB_46_iBOT))) (let ((?v_61 (ite ?v_60 (ite (= (ite ?v_12 (ite (BmainB_46_f_lt_4 ?v_25 ?v_59) ?v_8 ?v_4) BmainB_46_iBOT) ?v_8) ?v_8 ?v_96) BmainB_46_iBOT))) (let ((?v_66 (and ?v_12 (= ?v_61 ?v_8))) (?v_68 (and ?v_12 (= ?v_61 ?v_4)))) (let ((?v_65 (or ?v_66 ?v_68))) (let ((?v_64 (and ?v_65 ?v_62))) (let ((?v_71 (ite (or ?v_64 ?v_63) (ite ?v_64 (ite ?v_65 (ite ?v_66 ?v_67 (ite ?v_68 ?v_69 BmainB_46_iBOT)) BmainB_46_iBOT) (ite ?v_63 (ite (BmainB_46_f_ge_5 ?v_25 ?v_70) ?v_8 ?v_4) BmainB_46_iBOT)) BmainB_46_iBOT)) (?v_74 (ite ?v_23 ?v_72 BmainB_46_iBOT))) (let ((?v_77 (not (= ?v_74 BmainB_46_iBOT)))) (let ((?v_73 (and ?v_12 ?v_77))) (let ((?v_75 (or ?v_73 ?v_34))) (let ((?v_85 (ite ?v_75 ?v_4 BmainB_46_iBOT))) (let ((?v_76 (ite ?v_75 (ite (= (ite ?v_73 (ite (BmainB_46_f_lt_5 ?v_74 ?v_28) ?v_8 ?v_4) BmainB_46_iBOT) ?v_8) ?v_8 ?v_85) BmainB_46_iBOT))) (let ((?v_80 (and ?v_12 (= ?v_76 ?v_8))) (?v_81 (and ?v_12 (= ?v_76 ?v_4)))) (let ((?v_79 (or ?v_80 ?v_81))) (let ((?v_78 (and ?v_79 ?v_62)) (?v_84 (ite ?v_77 (ite (BmainB_46_f_ge_6 ?v_74 ?v_11) ?v_8 ?v_4) BmainB_46_iBOT))) (let ((?v_83 (not (= ?v_84 BmainB_46_iBOT)))) (let ((?v_82 (and ?v_83 ?v_63)) (?v_86 (ite ?v_75 (ite (= (ite ?v_73 (ite (BmainB_46_f_lt_3 ?v_74 ?v_30) ?v_8 ?v_4) BmainB_46_iBOT) ?v_8) ?v_8 ?v_85) BmainB_46_iBOT))) (let ((?v_89 (and ?v_12 (= ?v_86 ?v_8))) (?v_90 (and ?v_12 (= ?v_86 ?v_4)))) (let ((?v_88 (or ?v_89 ?v_90))) (let ((?v_87 (and ?v_88 ?v_62)) (?v_91 (and ?v_77 ?v_63)) (?v_94 (ite (not (= ?v_93 BmainB_46_iBOT)) (ite (= ?v_93 ?v_4) ?v_8 ?v_4) BmainB_46_iBOT)) (?v_97 (ite ?v_60 (ite (= (ite ?v_12 (ite (BmainB_46_f_lt_2 ?v_32 ?v_95) ?v_8 ?v_4) BmainB_46_iBOT) ?v_8) ?v_8 ?v_96) BmainB_46_iBOT))) (let ((?v_100 (and ?v_12 (= ?v_97 ?v_8))) (?v_101 (and ?v_12 (= ?v_97 ?v_4)))) (let ((?v_99 (or ?v_100 ?v_101))) (let ((?v_98 (and ?v_99 ?v_62))) (not (or (not (and (and (and (and (and (and (and (and (and (and (and (and (and (and (and (and (and (and (and (and (and (and (and (and (not (= ?v_36 BmainB_46_iBOT)) (not (= ?v_3 BmainB_46_iBOT))) (not (= ?v_5 BmainB_46_iBOT))) (not (= ?v_6 BmainB_46_iBOT))) (not (= ?v_7 BmainB_46_iBOT))) (not (= ?v_27 BmainB_46_iBOT))) (not (= ?v_10 BmainB_46_iBOT))) (not (= ?v_33 BmainB_46_iBOT))) (not (= ?v_30 BmainB_46_iBOT))) (not (= ?v_26 BmainB_46_iBOT))) ?v_15) (not (= ?v_28 BmainB_46_iBOT))) (not (= ?v_95 BmainB_46_iBOT))) (not (= ?v_13 BmainB_46_iBOT))) (not (= ?v_59 BmainB_46_iBOT))) (not (= ?v_21 BmainB_46_iBOT))) (not (= ?v_22 BmainB_46_iBOT))) (not (= ?v_72 BmainB_46_iBOT))) ?v_23) (not (= BmainB_46_init_const_zN1_693_c BmainB_46_iBOT))) (not (= BmainB_46_init_const_H_zN1_693_c BmainB_46_iBOT))) (not (= BmainB_46_init_const_N1_643_c BmainB_46_iBOT))) (not (= BmainB_46_init_const_T1_c BmainB_46_iBOT))) (not (= BmainB_46_init_const_T1_644_c BmainB_46_iBOT))) (and (and (and (and (and ?v_48 (= ?v_24 (ite (and (or (and (or (and ?v_12 (not (BmainB_46_f_lt_4 ?v_25 ?v_26))) (and ?v_29 (BmainB_46_f_ge_5 ?v_25 ?v_10))) (or (and ?v_12 (not (BmainB_46_f_lt_5 ?v_27 ?v_28))) (and ?v_29 (BmainB_46_f_ge_6 ?v_27 ?v_11)))) (or (and ?v_12 (not (BmainB_46_f_lt_3 ?v_27 ?v_30))) (and ?v_29 (BmainB_46_f_ge_4 ?v_27 ?v_31)))) ?v_29) ?v_8 ?v_4))) (= ?v_24 (ite (and ?v_29 (or (and ?v_12 (not (BmainB_46_f_lt_2 ?v_32 ?v_33))) (and ?v_29 (BmainB_46_f_ge_3 ?v_32 BmainB_46_init_const_N1_643_c)))) ?v_8 ?v_4))) (= BmainB_46_init_const_N1_c BmainB_46_init_const_N1_643_c)) (= BmainB_46_init_const_H_zN1_693_c BmainB_46_init_const_zN1_693_c)) (= BmainB_46_init_const_T1_c BmainB_46_init_const_T1_644_c)))) (and (and (= ?v_24 (ite (not (= ?v_58 BmainB_46_iBOT)) (ite (and (= ?v_58 ?v_8) ?v_92) ?v_8 ?v_4) BmainB_46_iBOT)) (= ?v_24 (ite (not (= ?v_71 BmainB_46_iBOT)) (ite (or (and (= ?v_71 ?v_8) (= (ite (or ?v_78 ?v_82) (ite ?v_78 (ite ?v_79 (ite ?v_80 ?v_67 (ite ?v_81 ?v_69 BmainB_46_iBOT)) BmainB_46_iBOT) (ite ?v_82 (ite ?v_83 ?v_84 BmainB_46_iBOT) BmainB_46_iBOT)) BmainB_46_iBOT) ?v_8)) (and (= (ite (or ?v_87 ?v_91) (ite ?v_87 (ite ?v_88 (ite ?v_89 ?v_67 (ite ?v_90 ?v_69 BmainB_46_iBOT)) BmainB_46_iBOT) (ite ?v_91 (ite ?v_77 (ite (BmainB_46_f_ge_4 ?v_74 ?v_31) ?v_8 ?v_4) BmainB_46_iBOT) BmainB_46_iBOT)) BmainB_46_iBOT) ?v_8) ?v_92)) ?v_8 ?v_4) BmainB_46_iBOT))) (= ?v_24 (ite (not (= ?v_94 BmainB_46_iBOT)) (ite (and (= ?v_94 ?v_8) (= (ite (or ?v_98 ?v_63) (ite ?v_98 (ite ?v_99 (ite ?v_100 ?v_67 (ite ?v_101 ?v_69 BmainB_46_iBOT)) BmainB_46_iBOT) (ite ?v_63 (ite (BmainB_46_f_ge_3 ?v_32 BmainB_46_init_const_N1_c) ?v_8 ?v_4) BmainB_46_iBOT)) BmainB_46_iBOT) ?v_8)) ?v_8 ?v_4) BmainB_46_iBOT)))))))))))))))))))))))))))))))))))))))))))))))))))))))))))))))))))))))
(check-sat)
(exit)
